p cnf 48 172
14 15 16 17 0
29 30 31 32 0
-1 -18 0
-1 -23 0
-1 -29 0
-1 -33 0
-1 -39 0
-1 -43 0
-18 -23 0
-18 -29 0
-18 -33 0
-18 -39 0
-18 -43 0
-23 -29 0
-23 -33 0
-23 -39 0
-23 -43 0
-29 -33 0
-29 -39 0
-29 -43 0
-33 -39 0
-33 -43 0
-39 -43 0
-2 -7 0
-2 -11 0
-2 -14 0
-2 -19 0
-2 -24 0
-2 -34 0
-2 -40 0
-2 -44 0
-7 -11 0
-7 -14 0
-7 -19 0
-7 -24 0
-7 -34 0
-7 -40 0
-7 -44 0
-11 -14 0
-11 -19 0
-11 -24 0
-11 -34 0
-11 -40 0
-11 -44 0
-14 -19 0
-14 -24 0
-14 -34 0
-14 -40 0
-14 -44 0
-19 -24 0
-19 -34 0
-19 -40 0
-19 -44 0
-24 -34 0
-24 -40 0
-24 -44 0
-34 -40 0
-34 -44 0
-40 -44 0
-3 -8 0
-3 -15 0
-3 -20 0
-3 -25 0
-3 -35 0
-3 -45 0
-8 -15 0
-8 -20 0
-8 -25 0
-8 -35 0
-8 -45 0
-15 -20 0
-15 -25 0
-15 -35 0
-15 -45 0
-20 -25 0
-20 -35 0
-20 -45 0
-25 -35 0
-25 -45 0
-35 -45 0
-4 -9 0
-4 -12 0
-4 -26 0
-4 -30 0
-4 -36 0
-4 -41 0
-4 -46 0
-9 -12 0
-9 -26 0
-9 -30 0
-9 -36 0
-9 -41 0
-9 -46 0
-12 -26 0
-12 -30 0
-12 -36 0
-12 -41 0
-12 -46 0
-26 -30 0
-26 -36 0
-26 -41 0
-26 -46 0
-30 -36 0
-30 -41 0
-30 -46 0
-36 -41 0
-36 -46 0
-41 -46 0
-5 -10 0
-5 -16 0
-5 -21 0
-5 -27 0
-5 -31 0
-5 -37 0
-5 -47 0
-10 -16 0
-10 -21 0
-10 -27 0
-10 -31 0
-10 -37 0
-10 -47 0
-16 -21 0
-16 -27 0
-16 -31 0
-16 -37 0
-16 -47 0
-21 -27 0
-21 -31 0
-21 -37 0
-21 -47 0
-27 -31 0
-27 -37 0
-27 -47 0
-31 -37 0
-31 -47 0
-37 -47 0
-6 -13 0
-6 -17 0
-6 -22 0
-6 -28 0
-6 -32 0
-6 -38 0
-6 -42 0
-6 -48 0
-13 -17 0
-13 -22 0
-13 -28 0
-13 -32 0
-13 -38 0
-13 -42 0
-13 -48 0
-17 -22 0
-17 -28 0
-17 -32 0
-17 -38 0
-17 -42 0
-17 -48 0
-22 -28 0
-22 -32 0
-22 -38 0
-22 -42 0
-22 -48 0
-28 -32 0
-28 -38 0
-28 -42 0
-28 -48 0
-32 -38 0
-32 -42 0
-32 -48 0
-38 -42 0
-38 -48 0
-42 -48 0
